StudentsNr = 5;
InstructorsNr = 3;
DaysNr = 1;
SlotsPerDay = 10;
AvailabilitySlotsLenght = 2;
RoomNr = 1;
ProgrammNr = 2;
DegreeNr = 1;
RolesNr = 2;
CoursesNr = 4;
InstructorsProgramm = [{1}, {1, 2}, {2}];
InstructorRolesPerProgramm = [|{}, {1}|{3}, {}|];
InstructorsAvailability = [|0, 1, 1, 1, 0, |1, 1, 1, 1, 1, |0, 0, 1, 0, 1|];
StudentsProgramm = [2, 2, 2, 2, 1];
StudentsDegree = [1, 1, 1, 1, 1];
StudentsSupervisorId = [3, 2, 2, 3, 1];
StudentsCourseIds = [{1, 2, 3}, {1, 3, 4}, {2, 3, 4}, {1, 3, 4}, {1, 2, 4}];
StudentsAvailability = [|0, 0, 0, 0, 0, |0, 1, 1, 1, 0, |0, 0, 0, 0, 1, |1, 1, 1, 1, 1, |0, 1, 1, 1, 0|];
TheoryticalMinCard = [2, 1, 1, 1, 1];
CoursesInstructorIds = [{1, 2}, {2}, {3}, {1, 3}];
RolesDemands = [0, 0];
RolesContinuity = [2];
ExamLen = [2, 2, 2, 2, 2];
LunchTsMinLen = 1;
LunchStarts = [5..6];
SupervisorAvailable = 5;
OptimalLunchLenght = [2, 1];
OptimalStartTs = [1, 2];
OptimalFinishTs = [1, 9];
MinimizeRooms = 500;
RolesSoftContinuity = [|1, 2|2, 2|];
SameDegreeInRoom = 10;
Mergeability = 2;
